
data;


/* Les profs et leurs matières */
param Profs :  1  2  3  4  5  6  7  8  9  10 11 12 13 14 15 16 17 18 19 20:=
      	    1  1  0  0  0  0  0  0  0  0  0  0  0  0  0  0  0  0  0  0  0
	    2  0  1  0  0  0  0  0  0  0  0  0  0  0  0  0  0  0  0  0  0 
	    3  0  0  1  0  0  0  0  0  0  0  0  0  0  0  0  0  0  0  0  0
	    4  0  0  0  1  0  0  0  0  0  0  0  0  0  0  0  0  0  0  0  0
	    5  0  0  0  0  1  0  0  0  0  0  0  0  0  0  0  0  0  0  0  0
	    6  0  0  0  0  0  1  0  0  0  0  0  0  0  0  0  0  0  0  0  0
	    7  1  1  1  1  1  1  0  0  0  0  0  0  0  0  0  0  0  0  0  0;
/*
Colonne: Les matières
1: Maths
2: Physique
3: Sciences
4: H-G
5: Philosophie
6: Français

Ligne: Professeurs
*/


/* Nombre d'heures de cours */

param Heures :  1  2  3  4  5  6  7  8  9 10 11 12 13 14 15 16 17 18 19 20 21 :=
      	     1  6  6  6  2  2  0  0  0  0  0  0  0  0  0  0  0  0  0  0  0 22
	     2  6  6  6  2  0  4  0  0  0  0  0  0  0  0  0  0  0  0  0  0 24
	     3  6  6  6  2  0  4  0  0  0  0  0  0  0  0  0  0  0  0  0  0 24
	     4  0  0  0  0  0  0  0  0  0  0  0  0  0  0  0  0  0  0  0  0  0
	     5  0  0  0  0  0  0  0  0  0  0  0  0  0  0  0  0  0  0  0  0  0
	     6  0  0  0  0  0  0  0  0  0  0  0  0  0  0  0  0  0  0  0  0  0
	     7  0  0  0  0  0  0  0  0  0  0  0  0  0  0  0  0  0  0  0  0  0
	     8  0  0  0  0  0  0  0  0  0  0  0  0  0  0  0  0  0  0  0  0  0
	     9  0  0  0  0  0  0  0  0  0  0  0  0  0  0  0  0  0  0  0  0  0
	    10  0  0  0  0  0  0  0  0  0  0  0  0  0  0  0  0  0  0  0  0  0
	    11 18 18 18  6  2  8  0  0  0  0  0  0  0  0  0  0  0  0  0  0 70;




/* Nombre d'heures de cours maximale par semaine */
param N:=30;

/*Nombre de matiere totale, maximum 20*/
param C:=6;

/*Nombre de classe totale, maximum 10*/
param D:=3;

/*Nombre de salle disponible*/
param E:=3;
end;